100
1000
209
207
206
201
201
200
199
198
194
191
190
188
186
185
182
181
179
178
178
174
172
170
170
170
160
159
155
154
144
143
142
136
135
134
132
130
128
126
126
122
118
117
116
113
112
106
106
105
103
103
101
96
95
90
90
89
82
81
81
80
78
77
76
74
72
71
71
70
68
66
64
62
62
61
60
58
57
57
57
57
54
48
46
44
42
36
33
30
29
25
24
23
23
22
22
21
17
14
13
13
